
--- Job bchfcnet.gms Start 02/08/22 17:31:24 34.3.0 rac355f3 WEX-WEI x86 64bit/MS Windows
--- Applying:
    C:\GAMS\34\gmsprmNT.txt
--- GAMS Parameters defined
    Input C:\Users\dekhi\Desktop\gamsworld\FCNetLib\test\bchfcnet.gms
    PageSize 0
    ScrDir C:\Users\dekhi\Desktop\gamsworld\FCNetLib\test\225a\
    SysDir C:\GAMS\34\
    LogOption 3
    ErrMsg 1
    ErrorLog 99
    IDE 1
    ResLim 3600
    LstTitleLeftAligned 1
Licensee: Eval License                                   S211214|0002AW-GEN
          Ostfalia Hochschule fuer angewandte Wissenschaften        DCE1645
          C:\Users\dekhi\Documents\GAMS\gamslice.txt
          License Admin: Mohamed Ali Dekhil, dekhil.medali@gmail.com       
          Evaluation license: Not for commercial or production use
GAMS 34.3.0   Copyright (C) 1987-2021 GAMS Development. All rights reserved
--- Starting compilation
--- bchfcnet.gms(34) 2 Mb
--- . decl.gms(15) 2 Mb
--- bchfcnet.gms(38) 2 Mb
--- . mc8.inc(1725) 3 Mb
--- bchfcnet.gms(67) 3 Mb
--- . equs.gms(20) 3 Mb
--- bchfcnet.gms(97) 3 Mb
--- call rm -f bchout_i.gdx startcut.txt startheur.txt cuthist.gdx agap.txt rgap.txt cntfail.txt
--- bchfcnet.gms(118) 3 Mb
--- Starting execution: elapsed 0:00:00.080
--- bchfcnet.gms(1783) 4 Mb
--- GDX File (execute_unload) C:\Users\dekhi\Desktop\gamsworld\FCNetLib\test\net.gdx
--- bchfcnet.gms(1874) 4 Mb
--- GDXin=C:\Users\dekhi\Desktop\gamsworld\FCNetLib\test\points\mc8.gdx
--- bchfcnet.gms(1874) 5 Mb
--- GDX File (execute_load) C:\Users\dekhi\Desktop\gamsworld\FCNetLib\test\points\mc8.gdx
--- Generating MIP model master
--- bchfcnet.gms(1878) 6 Mb
---   1,921 rows  3,041 columns  7,601 non-zeroes
---   1,520 discrete-columns
--- Executing CPLEX (Solvelink=2): elapsed 0:00:00.140

IBM ILOG CPLEX   34.3.0 rac355f3 Released Feb 25, 2021 WEI x86 64bit/MS Window

--- GAMS/Cplex Link licensed for continuous and discrete problems.

Reading parameter(s) from "C:\Users\dekhi\Desktop\gamsworld\FCNetLib\test\cplex.op2"
>>  mipstart 1
Finished reading from "C:\Users\dekhi\Desktop\gamsworld\FCNetLib\test\cplex.op2"

--- Space for names approximately 0.11 Mb
--- Use option 'names no' to turn use of names off
--- GMO memory 1.07 Mb (peak 1.10 Mb)
--- Dictionary memory 0.00 Mb
--- Cplex 20.1.0.0 link memory 0.08 Mb (peak 0.33 Mb)
--- Starting Cplex

Version identifier: 20.1.0.0 | 2020-11-10 | 9bedb6d68
CPXPARAM_Threads                                 1
CPXPARAM_MIP_Display                             4
CPXPARAM_TimeLimit                               3600
CPXPARAM_MIP_Tolerances_AbsMIPGap                0
CPXPARAM_MIP_Tolerances_MIPGap                   0
Generic callback                                 0x50
Processing 1 MIP starts.
MIP start 'm1' defined solution with objective 1577.0000.
1 of 1 MIP starts provided solutions.
MIP start 'm1' defined initial solution with objective 1577.0000.
Tried aggregator 2 times.
MIP Presolve eliminated 400 rows and 3 columns.
MIP Presolve added 797 rows and 0 columns.
Aggregator did 1 substitutions.
Reduced MIP has 2316 rows, 3037 columns, and 6871 nonzeros.
Reduced MIP has 1519 binaries, 0 generals, 0 SOSs, and 0 indicators.
Presolve time = 0.00 sec. (27.05 ticks)
Probing fixed 0 vars, tightened 3 bounds.
Probing time = 0.00 sec. (0.40 ticks)
Tried aggregator 1 time.
Detecting symmetries...
MIP Presolve modified 7 coefficients.
Reduced MIP has 2316 rows, 3037 columns, and 6871 nonzeros.
Reduced MIP has 1519 binaries, 0 generals, 0 SOSs, and 0 indicators.
Presolve time = 0.01 sec. (20.82 ticks)
Probing time = 0.00 sec. (0.40 ticks)
Clique table members: 4.
MIP emphasis: balance optimality and feasibility.
MIP search method: dynamic search.
Parallel mode: none, using 1 thread.
Tried aggregator 1 time.
LP Presolve eliminated 1120 rows and 1121 columns.
Aggregator did 399 substitutions.
Reduced LP has 797 rows, 1517 columns, and 3830 nonzeros.
Presolve time = 0.00 sec. (1.78 ticks)

Iteration log . . .
Iteration:     1   Dual objective     =            11.000000
Iteration:    76   Dual objective     =            56.994652
Iteration:   146   Dual objective     =            73.064171
Iteration:   208   Dual objective     =            80.133690
Iteration:   270   Dual objective     =            84.818182
Iteration:   332   Dual objective     =            88.026738
Initializing dual steep norms . . .
Root relaxation solution time = 0.02 sec. (12.57 ticks)

        Nodes                                         Cuts/
   Node  Left     Objective  IInf  Best Integer    Best Bound    ItCnt     Gap

*     0+    0                         1577.0000        0.0000           100.00%
Found incumbent of value 1577.000000 after 0.05 sec. (67.53 ticks)
      0     0       91.7647   360     1577.0000       91.7647      409   94.18%
      0     0      953.3104   378     1577.0000     Cuts: 620     1209   39.55%
      0     0     1268.1895   382     1577.0000     Cuts: 368     2096   19.58%
      0     0     1364.3261   353     1577.0000     Cuts: 329     2509   13.49%
      0     0     1408.5201   377     1577.0000     Cuts: 268     2869   10.68%
      0     0     1437.8832   346     1577.0000     Cuts: 302     3177    8.82%
Detecting symmetries...
      0     0     1459.2456   359     1577.0000     Cuts: 225     3468    7.47%
      0     0     1477.0232   362     1577.0000     Cuts: 205     3794    6.34%
      0     0     1493.1641   359     1577.0000     Cuts: 241     4086    5.32%
      0     0     1501.3217   372     1577.0000     Cuts: 202     4380    4.80%
      0     0     1504.5383   382     1577.0000     Cuts: 219     4567    4.59%
      0     0     1511.7616   363     1577.0000     Cuts: 153     4785    4.14%
      0     0     1514.0910   357     1577.0000     Cuts: 178     4974    3.99%
      0     0     1519.0149   322     1577.0000     Cuts: 191     5187    3.68%
      0     0     1522.8795   325     1577.0000     Cuts: 165     5413    3.43%
      0     0     1525.3622   299     1577.0000     Cuts: 177     5561    3.27%
      0     0     1527.2845   384     1577.0000     Cuts: 148     5733    3.15%
      0     0     1528.7438   379     1577.0000     Cuts: 190     5931    3.06%
      0     0     1532.7480   385     1577.0000     Cuts: 199     6180    2.81%
      0     0     1535.1889   343     1577.0000     Cuts: 224     6406    2.65%
      0     0     1536.2587   328     1577.0000     Cuts: 149     6614    2.58%
      0     0     1537.4398   363     1577.0000     Cuts: 171     6789    2.51%
      0     0     1537.6106   324     1577.0000     Cuts: 136     6879    2.50%
      0     0     1537.7932   320     1577.0000      Cuts: 98     7012    2.49%
      0     0     1538.3517   316     1577.0000     Cuts: 103     7197    2.45%
      0     0     1538.9742   269     1577.0000     Cuts: 166     7440    2.41%
      0     0     1539.7648   271     1577.0000     Cuts: 149     7634    2.36%
      0     0     1539.7852   311     1577.0000      Cuts: 58     7719    2.36%
Detecting symmetries...
      0     2     1539.7852   311     1577.0000     1539.7852     7719    2.36%
Elapsed time = 1.86 sec. (1904.54 ticks, tree = 0.01 MB, solutions = 1)
     25    27     1546.8801   242     1577.0000     1539.8744    10987    2.35%
     60    62     1558.1539   167     1577.0000     1539.8744    13946    2.35%
    110   112     1572.9343   110     1577.0000     1539.8744    17378    2.35%
    137   133     1545.5232   180     1577.0000     1540.3159    20757    2.33%
                                                     Cuts: 24                  
    171   167     1558.1634   164     1577.0000     1540.3159    24666    2.33%
    207   199     1544.1698   264     1577.0000     1540.4724    27277    2.32%
                                                     Cuts: 13                  
    247   235     1540.7467   258     1577.0000     1540.7056    30369    2.30%
                                                      Cuts: 8                  
    280   268     1558.3307   283     1577.0000     1540.7056    33153    2.30%
    328   313     1556.2767   226     1577.0000     1540.7479    36981    2.30%
                                                    Covers: 1                  

Performing restart 1

Repeating presolve.
Tried aggregator 1 time.
MIP Presolve eliminated 39 rows and 56 columns.
MIP Presolve modified 10 coefficients.
Reduced MIP has 2277 rows, 2981 columns, and 6737 nonzeros.
Reduced MIP has 1491 binaries, 0 generals, 0 SOSs, and 0 indicators.
Presolve time = 0.00 sec. (18.99 ticks)
Tried aggregator 1 time.
MIP Presolve modified 15 coefficients.
Reduced MIP has 2277 rows, 2981 columns, and 6737 nonzeros.
Reduced MIP has 1491 binaries, 0 generals, 0 SOSs, and 0 indicators.
Presolve time = 0.01 sec. (20.25 ticks)
Represolve time = 0.03 sec. (48.16 ticks)
Tried aggregator 1 time.
LP Presolve eliminated 16 rows and 16 columns.
Aggregator did 3 substitutions.
Reduced LP has 3787 rows, 2962 columns, and 19279 nonzeros.
Presolve time = 0.00 sec. (2.57 ticks)
Initializing dual steep norms . . .

Iteration log . . .
Iteration:     1   Dual objective     =             0.000000
Perturbation started.
Iteration:   101   Dual objective     =             0.000000
Iteration:   209   Dual objective     =            51.000061
Iteration:   354   Dual objective     =            65.979734
Iteration:   537   Dual objective     =           268.495872
Iteration:   727   Dual objective     =           681.975900
Iteration:   912   Dual objective     =          1142.022159
Iteration:  1131   Dual objective     =          1332.321559
Iteration:  1323   Dual objective     =          1414.557833
Iteration:  1496   Dual objective     =          1441.444006
Iteration:  1646   Dual objective     =          1513.754610
Iteration:  1793   Dual objective     =          1527.941543
Iteration:  1933   Dual objective     =          1531.004284
Iteration:  2060   Dual objective     =          1534.738296
Iteration:  2207   Dual objective     =          1539.018572
Iteration:  2328   Dual objective     =          1539.403407
Iteration:  2465   Dual objective     =          1539.735538
Iteration:  2615   Dual objective     =          1539.904206
Iteration:  2772   Dual objective     =          1540.108073
Removing perturbation.
Iteration:  2872   Scaled dual infeas =             0.000000
Iteration:  2873   Dual objective     =          1540.115994
Iteration:  2875   Dual objective     =          1540.116376
Initializing dual steep norms . . .
    497     0     1542.8971   319     1577.0000     Cuts: 298    52311    2.16%
    497     0     1544.6480   394     1577.0000     Cuts: 360    52907    2.05%
    497     0     1546.7927   383     1577.0000     Cuts: 519    53563    1.92%
*   497+    0                         1576.0000     1546.7927             1.85%
Found incumbent of value 1576.000000 after 5.66 sec. (5801.05 ticks)
    497     0  -1.00000e+75     0     1576.0000     1546.7927    53563    1.85%
    497     0     1549.8907   404     1576.0000     Cuts: 586    54163    1.66%
    497     0     1551.7772   424     1576.0000     Cuts: 539    54852    1.54%
    497     0     1554.5197   442     1576.0000     Cuts: 497    55393    1.36%
    497     0     1555.4983   408     1576.0000     Cuts: 669    55939    1.30%
    497     0     1556.4176   407     1576.0000     Cuts: 587    56510    1.24%
    497     0     1557.1208   468     1576.0000     Cuts: 597    56995    1.20%
    497     0     1557.6748   488     1576.0000     Cuts: 559    57536    1.16%
    497     0     1558.6277   460     1576.0000     Cuts: 526    58012    1.10%
    497     0     1560.7124   393     1576.0000     Cuts: 669    58657    0.97%
    497     0     1560.8566   417     1576.0000     Cuts: 482    59069    0.96%
    497     0     1561.1444   385     1576.0000     Cuts: 435    59579    0.94%
    497     0     1561.2996   398     1576.0000     Cuts: 485    59966    0.93%
    497     0     1561.4585   366     1576.0000     Cuts: 436    60380    0.92%
    497     0     1561.6614   396     1576.0000     Cuts: 373    60840    0.91%
    497     0     1561.8442   420     1576.0000     Cuts: 349    61242    0.90%
    497     0     1561.9590   350     1576.0000     Cuts: 344    61552    0.89%
    497     0     1562.0761   220     1576.0000     Cuts: 415    61875    0.88%
    497     0     1562.1378   389     1576.0000     Cuts: 222    62210    0.88%
    497     0     1562.2442   347     1576.0000     Cuts: 179    62451    0.87%
    497     0     1562.3295   283     1576.0000     Cuts: 243    62620    0.87%
    497     0     1562.3381   288     1576.0000     Cuts: 107    62765    0.87%
    497     0     1562.3518   316     1576.0000      Cuts: 73    62918    0.87%
    497     0     1562.3528   317     1576.0000     Cuts: 402    63114    0.87%
    497     2     1562.3528   324     1576.0000     1562.3528    63114    0.87%
Elapsed time = 10.33 sec. (10902.13 ticks, tree = 0.01 MB, solutions = 2)
    499     4     1562.3528   323     1576.0000     1562.3644    63316    0.87%
    501     6     1562.3819   294     1576.0000     1562.3644    63352    0.87%
    504     9     1564.0257   171     1576.0000     1562.3644    64717    0.87%
    511    16     1565.8651   128     1576.0000     1562.3644    67590    0.87%
    517    22     1567.8009   216     1576.0000     1562.3644    70363    0.87%
    524    29     1568.6477   167     1576.0000     1562.3644    70994    0.87%
    531    35     1570.1091    90     1576.0000     1562.3644    71705    0.87%
    553    49     1562.4173   265     1576.0000     1562.3819    73966    0.86%
                                                     Cuts: 15                  
    556    52     1562.5538   296     1576.0000     1562.3819    74773    0.86%
    559    55     1562.5443   317     1576.0000     1562.3819    74936    0.86%
Elapsed time = 19.98 sec. (21942.85 ticks, tree = 0.26 MB, solutions = 2)
    564    60     1563.4357   327     1576.0000     1562.3819    76261    0.86%
    568    64     1563.9775   289     1576.0000     1562.3819    77151    0.86%
    574    70     1564.9283   246     1576.0000     1562.3819    77878    0.86%
    580    76     1566.9040   298     1576.0000     1562.3819    78601    0.86%
    596    88     1562.7118   262     1576.0000     1562.3833    79920    0.86%
    620   108     1562.8223   255     1576.0000     1562.3944    83268    0.86%
    650   130     1564.4385   139     1576.0000     1562.4173    87827    0.86%
    693   167     1566.6820   157     1576.0000     1562.4475    94183    0.86%
                                                     Cuts: 12                  
*   697+  124                         1569.0000     1562.4475             0.42%
Found incumbent of value 1569.000000 after 27.02 sec. (30058.05 ticks)
*   703   110      integral     0     1568.0000     1562.4475    94697    0.35%
Found incumbent of value 1568.000000 after 27.03 sec. (30069.69 ticks)
    724   124     1563.9638   310     1568.0000     1562.4602    99095    0.35%
                                                     Cuts: 39                  
    753   140     1562.6170   332     1568.0000     1562.5538   102163    0.35%
Elapsed time = 28.69 sec. (31999.12 ticks, tree = 0.26 MB, solutions = 4)
    797   161     1565.6419   204     1568.0000     1562.5726   106663    0.35%
*   803+  137                         1567.0000     1562.5726             0.28%
Found incumbent of value 1567.000000 after 29.70 sec. (33152.87 ticks)
*   803+   95                         1566.0000     1562.5726             0.22%
Found incumbent of value 1566.000000 after 29.72 sec. (33168.43 ticks)
    823    95     1563.3831   303     1566.0000     1562.6487   109659    0.21%
                                                     Cuts: 18                  
    865   108     1562.7991   282     1566.0000     1562.7377   116237    0.21%
    928   136     1563.4019   271     1566.0000     1562.7806   122646    0.21%
    956   143     1564.6567   257     1566.0000     1562.8835   128833    0.20%
                                                     Cuts: 25                  
    997   160     1564.8482   219     1566.0000     1563.0827   134944    0.19%
                                                     Cuts: 13                  
   1079   176     1563.3659   302     1566.0000     1563.2005   142552    0.18%
                                                     Cuts: 32                  
   1108   174     1564.2038   295     1566.0000     1563.2668   150374    0.17%
                                                     Cuts: 19                  
   1129   180        cutoff           1566.0000     1563.2668   155447    0.17%
   1157   185     1564.4634   262     1566.0000     1563.3421   161019    0.17%
Elapsed time = 37.33 sec. (42107.47 ticks, tree = 0.56 MB, solutions = 6)
   1188   187     1564.6118   242     1566.0000     1563.4558   169865    0.16%
                                                     Cuts: 25                  
   1216   186        cutoff           1566.0000     1563.4793   175311    0.16%
                                                     Cuts: 26                  
   1242   191     1564.9935   187     1566.0000     1563.5473   180388    0.16%
                                                     Cuts: 22                  
   1274   189     1564.4641   359     1566.0000     1563.8492   186434    0.14%
                                                     Cuts: 49                  
   1294   188     1564.0536   328     1566.0000     1563.8648   192104    0.14%
                                                     Cuts: 23                  
   1326   185     1564.4705   247     1566.0000     1564.0320   199990    0.13%
                                                 Flowcuts: 10                  
   1350   173     1564.4328   342     1566.0000     1564.1000   207043    0.12%
                                                     Cuts: 21                  
   1378   169     1564.3997   250     1566.0000     1564.1857   214385    0.12%
   1407   165        cutoff           1566.0000     1564.2298   222363    0.11%
                                                      Cuts: 6                  
   1424   170     1564.9814   239     1566.0000     1564.2539   227898    0.11%
Elapsed time = 45.67 sec. (52164.28 ticks, tree = 0.39 MB, solutions = 6)
   1462   166        cutoff           1566.0000     1564.3365   235881    0.11%
   1488   173        cutoff           1566.0000     1564.3673   242098    0.10%
   1545   178     1564.8316   206     1566.0000     1564.4527   250307    0.10%
   1602   142        cutoff           1566.0000     1564.5874   258804    0.09%
   1665   118     1564.7540    98     1566.0000     1564.7107   267040    0.08%
   1777    91     1564.9408   212     1566.0000     1564.8340   275676    0.07%
   1905    66     1564.9899   187     1566.0000     1564.9371   283141    0.07%

Cover cuts applied:  285
Implied bound cuts applied:  4
Flow cuts applied:  1303
Mixed integer rounding cuts applied:  257
Flow path cuts applied:  30
Zero-half cuts applied:  27
Multi commodity flow cuts applied:  5
Lift and project cuts applied:  41
Gomory fractional cuts applied:  74

Root node processing (before b&c):
  Real time             =    1.86 sec. (1904.28 ticks)
Sequential b&c:
  Real time             =   49.70 sec. (57371.02 ticks)
                          ------------
Total (root+branch&cut) =   51.56 sec. (59275.30 ticks)

--- MIP status (101): integer optimal solution.
--- Cplex Time: 51.56sec (det. 59275.31 ticks)

--- Fixing integer variables and solving final LP...

Version identifier: 20.1.0.0 | 2020-11-10 | 9bedb6d68
CPXPARAM_Advance                                 2
CPXPARAM_Threads                                 1
CPXPARAM_MIP_Display                             4
CPXPARAM_TimeLimit                               3600
CPXPARAM_MIP_Tolerances_AbsMIPGap                0
CPXPARAM_MIP_Tolerances_MIPGap                   0
Tried aggregator 1 time.
LP Presolve eliminated 1920 rows and 3041 columns.
All rows and columns eliminated.
Presolve time = 0.00 sec. (1.14 ticks)

--- Fixed MIP status (1): optimal.
--- Cplex Time: 0.00sec (det. 1.95 ticks)


Proven optimal solution
MIP Solution:         1566.000000    (284986 iterations, 1977 nodes)
Final Solve:          1566.000000    (0 iterations)

Best possible:        1566.000000
Absolute gap:            0.000000
Relative gap:            0.000000

--- Reading solution for model master
*** Status: Normal completion
--- Job bchfcnet.gms Stop 02/08/22 17:32:16 elapsed 0:00:51.746
